unsat
( c0
  c1
  c10
  c100
  c1000
  c1002
  c1003
  c1004
  c1005
  c1006
  c1008
  c1009
  c101
  c1011
  c1012
  c1013
  c1014
  c1015
  c1016
  c1017
  c1018
  c1019
  c102
  c1020
  c1021
  c1022
  c1023
  c1024
  c1025
  c1026
  c1027
  c1028
  c1029
  c103
  c1030
  c1031
  c1032
  c1033
  c1034
  c1035
  c1036
  c1037
  c1038
  c1039
  c104
  c1040
  c1041
  c1042
  c1043
  c1044
  c1045
  c1046
  c1047
  c1048
  c1049
  c105
  c1050
  c1051
  c1052
  c1053
  c1054
  c1055
  c1056
  c1057
  c1058
  c1059
  c106
  c1060
  c1061
  c1062
  c1063
  c1064
  c1065
  c1066
  c1067
  c1068
  c107
  c1078
  c1079
  c108
  c1080
  c1081
  c1082
  c1084
  c1085
  c1086
  c1087
  c1089
  c109
  c1090
  c1094
  c1095
  c1096
  c1097
  c1098
  c11
  c110
  c1100
  c1101
  c1102
  c1103
  c1105
  c1106
  c1107
  c1108
  c1109
  c111
  c1111
  c1112
  c1114
  c1115
  c1116
  c1117
  c1118
  c1119
  c112
  c1120
  c1121
  c1122
  c1123
  c1124
  c1125
  c1126
  c1127
  c1128
  c1129
  c113
  c1130
  c1131
  c1132
  c1133
  c1134
  c1135
  c1136
  c1137
  c1138
  c1139
  c114
  c1140
  c1141
  c1142
  c1143
  c1144
  c1145
  c1146
  c1147
  c1148
  c1149
  c115
  c1150
  c1151
  c1152
  c1153
  c1154
  c1155
  c1156
  c1157
  c1158
  c1159
  c116
  c1160
  c1161
  c1162
  c1163
  c1164
  c1165
  c1166
  c1167
  c1168
  c1169
  c117
  c1170
  c1171
  c118
  c1181
  c1182
  c1183
  c1184
  c1185
  c1187
  c1188
  c1189
  c119
  c1190
  c1192
  c1193
  c1197
  c1198
  c1199
  c12
  c120
  c1200
  c1201
  c1203
  c1204
  c1205
  c1206
  c1208
  c1209
  c121
  c1210
  c1211
  c1212
  c1214
  c1215
  c1217
  c1218
  c1219
  c122
  c1220
  c1221
  c1222
  c1223
  c1224
  c1225
  c1226
  c1227
  c1228
  c1229
  c123
  c1230
  c1231
  c1232
  c1233
  c1234
  c1235
  c1236
  c1237
  c1238
  c1239
  c124
  c1240
  c1241
  c1242
  c1243
  c1244
  c1245
  c1246
  c1247
  c1248
  c1249
  c125
  c1250
  c1251
  c1252
  c1253
  c1254
  c1255
  c1256
  c1257
  c1258
  c1259
  c126
  c1260
  c1261
  c1262
  c1263
  c1264
  c1265
  c1266
  c1267
  c1268
  c1269
  c127
  c1270
  c1271
  c1272
  c1273
  c1274
  c128
  c1284
  c1285
  c1286
  c1287
  c1288
  c129
  c1290
  c1291
  c1292
  c1293
  c1295
  c1296
  c13
  c130
  c1300
  c1301
  c1302
  c1303
  c1304
  c1306
  c1307
  c1308
  c1309
  c131
  c1311
  c1312
  c1313
  c1314
  c1315
  c1317
  c1318
  c132
  c1320
  c1321
  c1322
  c1323
  c1324
  c1325
  c1326
  c1327
  c1328
  c1329
  c133
  c1330
  c1331
  c1332
  c1333
  c1334
  c1335
  c1336
  c1337
  c1338
  c1339
  c134
  c1340
  c1341
  c1342
  c1343
  c1344
  c1345
  c1346
  c1347
  c1348
  c1349
  c135
  c1350
  c1351
  c1352
  c1353
  c1354
  c1355
  c1356
  c1357
  c1358
  c1359
  c136
  c1360
  c1361
  c1362
  c1363
  c1364
  c1365
  c1366
  c1367
  c1368
  c1369
  c137
  c1370
  c1371
  c1372
  c1373
  c1374
  c1375
  c1376
  c1377
  c138
  c1387
  c1388
  c1389
  c139
  c1390
  c1391
  c1393
  c1394
  c1395
  c1396
  c1398
  c1399
  c14
  c140
  c1403
  c1404
  c1405
  c1406
  c1407
  c1409
  c141
  c1410
  c1411
  c1412
  c1414
  c1415
  c1416
  c1417
  c1418
  c142
  c1420
  c1421
  c1423
  c1424
  c1425
  c1426
  c1427
  c1428
  c1429
  c143
  c1430
  c1431
  c1432
  c1433
  c1434
  c1435
  c1436
  c1437
  c1438
  c1439
  c144
  c1440
  c1441
  c1442
  c1443
  c1444
  c1445
  c1446
  c1447
  c1448
  c1449
  c145
  c1450
  c1451
  c1452
  c1453
  c1454
  c1455
  c1456
  c1457
  c1458
  c1459
  c146
  c1460
  c1461
  c1462
  c1463
  c1464
  c1465
  c1466
  c1467
  c1468
  c1469
  c147
  c1470
  c1471
  c1472
  c1473
  c1474
  c1475
  c1476
  c1477
  c1478
  c1479
  c148
  c1480
  c149
  c1490
  c1491
  c1492
  c1493
  c1494
  c1496
  c1497
  c1498
  c1499
  c15
  c150
  c1501
  c1502
  c1506
  c1507
  c1508
  c1509
  c151
  c1510
  c1512
  c1513
  c1514
  c1515
  c1517
  c1518
  c1519
  c152
  c1520
  c1521
  c1523
  c1524
  c1526
  c1527
  c1528
  c1529
  c153
  c1530
  c1531
  c1532
  c1533
  c1534
  c1535
  c1536
  c1537
  c1538
  c1539
  c154
  c1540
  c1541
  c1542
  c1543
  c1544
  c1545
  c1546
  c1547
  c1548
  c1549
  c155
  c1550
  c1551
  c1552
  c1553
  c1554
  c1555
  c1556
  c1557
  c1558
  c1559
  c156
  c1560
  c1561
  c1562
  c1563
  c1564
  c1565
  c1566
  c1567
  c1568
  c1569
  c157
  c1570
  c1571
  c1572
  c1573
  c1574
  c1575
  c1576
  c1577
  c1578
  c1579
  c158
  c1580
  c1581
  c1582
  c1583
  c159
  c1593
  c1594
  c1595
  c1596
  c1597
  c1599
  c16
  c160
  c1600
  c1601
  c1602
  c1604
  c1605
  c1609
  c161
  c1610
  c1611
  c1612
  c1613
  c1615
  c1616
  c1617
  c1618
  c162
  c1620
  c1621
  c1622
  c1623
  c1624
  c1626
  c1627
  c1629
  c163
  c1630
  c1631
  c1632
  c1633
  c1634
  c1635
  c1636
  c1637
  c1638
  c1639
  c164
  c1640
  c1641
  c1642
  c1643
  c1644
  c1645
  c1646
  c1647
  c1648
  c1649
  c165
  c1650
  c1651
  c1652
  c1653
  c1654
  c1655
  c1656
  c1657
  c1658
  c1659
  c166
  c1660
  c1661
  c1662
  c1663
  c1664
  c1665
  c1666
  c1667
  c1668
  c1669
  c167
  c1670
  c1671
  c1672
  c1673
  c1674
  c1675
  c1676
  c1677
  c1678
  c1679
  c168
  c1680
  c1681
  c1682
  c1683
  c1684
  c1685
  c1686
  c169
  c1696
  c17
  c170
  c171
  c172
  c173
  c174
  c175
  c176
  c177
  c178
  c179
  c18
  c180
  c181
  c182
  c183
  c184
  c185
  c1859
  c186
  c187
  c1878
  c188
  c1889
  c189
  c1890
  c1891
  c1892
  c1893
  c1894
  c1895
  c1896
  c1897
  c1898
  c1899
  c19
  c190
  c1900
  c1901
  c1902
  c1903
  c1904
  c1905
  c1906
  c1907
  c1908
  c1909
  c191
  c1910
  c1911
  c1912
  c1913
  c1914
  c1915
  c1916
  c1917
  c1918
  c1919
  c192
  c1920
  c1921
  c1922
  c1923
  c1924
  c1925
  c1926
  c1927
  c1928
  c1929
  c193
  c1930
  c1931
  c1932
  c1933
  c1934
  c1935
  c1936
  c1937
  c1938
  c1939
  c194
  c1940
  c1941
  c1942
  c1943
  c1944
  c1945
  c1946
  c1947
  c1948
  c1949
  c195
  c1950
  c1951
  c196
  c197
  c198
  c199
  c2
  c20
  c200
  c201
  c202
  c203
  c204
  c2042
  c2043
  c2044
  c2045
  c2046
  c2047
  c2048
  c2049
  c205
  c2050
  c2051
  c2052
  c2053
  c2054
  c2055
  c2056
  c2057
  c2058
  c2059
  c206
  c2060
  c2061
  c2062
  c2063
  c207
  c2073
  c2074
  c2075
  c2076
  c2077
  c2078
  c2079
  c208
  c2080
  c2081
  c2083
  c2084
  c2085
  c2086
  c2087
  c2088
  c2089
  c209
  c2090
  c2091
  c2092
  c2093
  c2094
  c2095
  c2096
  c2097
  c2098
  c2099
  c21
  c210
  c2100
  c2101
  c2102
  c2103
  c2106
  c2107
  c211
  c2110
  c2111
  c2114
  c2115
  c2118
  c2119
  c212
  c2122
  c2123
  c2126
  c2127
  c213
  c2130
  c2131
  c2134
  c2135
  c2138
  c2139
  c214
  c2141
  c2142
  c2144
  c2145
  c2147
  c2148
  c215
  c2150
  c2151
  c2153
  c2154
  c2156
  c2157
  c2159
  c216
  c2160
  c2162
  c2163
  c2165
  c2166
  c217
  c2171
  c2172
  c2177
  c2178
  c218
  c2183
  c2184
  c2189
  c219
  c2190
  c2195
  c2196
  c22
  c220
  c2201
  c2202
  c2207
  c2208
  c221
  c2213
  c2214
  c2219
  c222
  c2220
  c2225
  c2226
  c223
  c2231
  c2232
  c2237
  c2238
  c224
  c2243
  c2244
  c2249
  c225
  c2250
  c2255
  c2256
  c226
  c2261
  c2262
  c2267
  c2268
  c227
  c2273
  c2274
  c2275
  c2279
  c228
  c2280
  c2281
  c2285
  c2286
  c2287
  c229
  c2291
  c2292
  c2293
  c2297
  c2298
  c2299
  c23
  c230
  c2303
  c2304
  c2305
  c2309
  c231
  c2310
  c2311
  c2315
  c2316
  c2317
  c232
  c2321
  c2322
  c2323
  c2327
  c2328
  c233
  c2331
  c2332
  c2335
  c2336
  c2339
  c234
  c2340
  c2343
  c2344
  c2347
  c2348
  c235
  c2351
  c2352
  c2355
  c2356
  c2359
  c236
  c2360
  c2363
  c2364
  c2365
  c2366
  c2367
  c2368
  c2369
  c237
  c2370
  c2371
  c2373
  c2374
  c2377
  c2378
  c238
  c2381
  c2382
  c2385
  c2386
  c2389
  c239
  c2390
  c2395
  c2398
  c24
  c240
  c2401
  c2404
  c2405
  c2406
  c2407
  c2408
  c2409
  c241
  c2410
  c2411
  c2412
  c2413
  c2414
  c2415
  c2416
  c2417
  c2418
  c2419
  c242
  c2420
  c243
  c244
  c245
  c246
  c247
  c248
  c249
  c25
  c250
  c251
  c252
  c253
  c254
  c255
  c256
  c257
  c258
  c259
  c26
  c260
  c261
  c262
  c263
  c264
  c265
  c266
  c267
  c268
  c269
  c27
  c270
  c271
  c272
  c273
  c274
  c275
  c276
  c277
  c278
  c279
  c28
  c29
  c3
  c30
  c31
  c32
  c33
  c34
  c35
  c36
  c37
  c38
  c39
  c4
  c40
  c41
  c42
  c43
  c44
  c443
  c45
  c451
  c452
  c453
  c454
  c455
  c456
  c457
  c458
  c459
  c46
  c460
  c461
  c462
  c463
  c464
  c465
  c466
  c467
  c468
  c469
  c47
  c470
  c471
  c472
  c473
  c474
  c475
  c476
  c477
  c478
  c479
  c48
  c480
  c481
  c482
  c483
  c484
  c485
  c486
  c487
  c49
  c5
  c50
  c506
  c507
  c508
  c509
  c51
  c510
  c511
  c512
  c513
  c514
  c515
  c516
  c517
  c518
  c519
  c52
  c520
  c521
  c522
  c523
  c524
  c525
  c526
  c527
  c528
  c529
  c53
  c530
  c531
  c532
  c54
  c55
  c56
  c57
  c58
  c59
  c596
  c597
  c598
  c599
  c6
  c60
  c600
  c601
  c602
  c603
  c604
  c605
  c606
  c607
  c608
  c609
  c61
  c610
  c611
  c612
  c613
  c62
  c63
  c64
  c65
  c66
  c67
  c677
  c678
  c679
  c68
  c680
  c681
  c682
  c683
  c684
  c685
  c687
  c688
  c689
  c69
  c690
  c695
  c696
  c697
  c698
  c699
  c7
  c70
  c700
  c701
  c702
  c703
  c704
  c705
  c71
  c713
  c714
  c715
  c716
  c717
  c718
  c719
  c72
  c720
  c721
  c722
  c723
  c724
  c725
  c726
  c727
  c728
  c729
  c73
  c730
  c731
  c732
  c733
  c734
  c735
  c736
  c737
  c738
  c739
  c74
  c740
  c741
  c742
  c743
  c744
  c745
  c746
  c747
  c748
  c749
  c75
  c759
  c76
  c760
  c761
  c762
  c763
  c764
  c765
  c766
  c767
  c768
  c769
  c77
  c770
  c771
  c772
  c773
  c775
  c776
  c777
  c778
  c78
  c780
  c781
  c785
  c786
  c787
  c788
  c789
  c79
  c791
  c792
  c793
  c794
  c796
  c797
  c798
  c799
  c8
  c80
  c800
  c802
  c803
  c805
  c806
  c807
  c808
  c809
  c81
  c810
  c811
  c812
  c813
  c814
  c815
  c816
  c817
  c818
  c819
  c82
  c820
  c821
  c822
  c823
  c824
  c825
  c826
  c827
  c828
  c829
  c83
  c830
  c831
  c832
  c833
  c834
  c835
  c836
  c837
  c838
  c839
  c84
  c840
  c841
  c842
  c843
  c844
  c845
  c846
  c847
  c848
  c849
  c85
  c850
  c851
  c852
  c853
  c854
  c855
  c856
  c857
  c858
  c859
  c86
  c860
  c861
  c862
  c87
  c872
  c873
  c874
  c875
  c876
  c878
  c879
  c88
  c880
  c881
  c883
  c884
  c888
  c889
  c89
  c890
  c891
  c892
  c894
  c895
  c896
  c897
  c899
  c9
  c90
  c900
  c901
  c902
  c903
  c905
  c906
  c908
  c909
  c91
  c910
  c911
  c912
  c913
  c914
  c915
  c916
  c917
  c918
  c919
  c92
  c920
  c921
  c922
  c923
  c924
  c925
  c926
  c927
  c928
  c929
  c93
  c930
  c931
  c932
  c933
  c934
  c935
  c936
  c937
  c938
  c939
  c94
  c940
  c941
  c942
  c943
  c944
  c945
  c946
  c947
  c948
  c949
  c95
  c950
  c951
  c952
  c953
  c954
  c955
  c956
  c957
  c958
  c959
  c96
  c960
  c961
  c962
  c963
  c964
  c965
  c97
  c975
  c976
  c977
  c978
  c979
  c98
  c981
  c982
  c983
  c984
  c986
  c987
  c99
  c991
  c992
  c993
  c994
  c995
  c997
  c998
  c999 )
